
<<< setup


<<< generate

Version identifier: 22.1.1.0 | 2022-11-28 | 9160aff4d
CPXPARAM_TimeLimit                               1800
Found incumbent of value 0.000000 after 0.00 sec. (7.94 ticks)
Tried aggregator 1 time.
MIP Presolve eliminated 703 rows and 0 columns.
Reduced MIP has 307125 rows, 246753 columns, and 1105650 nonzeros.
Reduced MIP has 246051 binaries, 702 generals, 0 SOSs, and 0 indicators.
Presolve time = 0.21 sec. (409.15 ticks)
Probing time = 0.11 sec. (69.34 ticks)
Tried aggregator 1 time.
Detecting symmetries...
Reduced MIP has 307125 rows, 246753 columns, and 1105650 nonzeros.
Reduced MIP has 246051 binaries, 702 generals, 0 SOSs, and 0 indicators.
Presolve time = 1.60 sec. (1261.91 ticks)
Probing time = 0.08 sec. (69.30 ticks)
Clique table members: 8849.
MIP emphasis: balance optimality and feasibility.
MIP search method: dynamic search.
Parallel mode: deterministic, using up to 8 threads.
Root relaxation solution time = 100.20 sec. (112780.21 ticks)

        Nodes                                         Cuts/
   Node  Left     Objective  IInf  Best Integer    Best Bound    ItCnt     Gap

*     0+    0                            0.0000    16930.0000              --- 
*     0+    0                          100.0000    16930.0000              --- 
      0     0    16930.0000 82722      100.0000    16930.0000   159921     --- 
*     0+    0                          705.0000    16930.0000              --- 
      0     0    16930.0000 49660      705.0000   Cuts: 10000   182358     --- 
      0     0    16930.0000 49807      705.0000    Cuts: 1530   191140     --- 

Implied bound cuts applied:  442
Mixed integer rounding cuts applied:  1411
Zero-half cuts applied:  399

Root node processing (before b&c):
  Real time             = 2010.81 sec. (264589.28 ticks)
Parallel b&c, 8 threads:
  Real time             =    0.00 sec. (0.00 ticks)
  Sync time (average)   =    0.00 sec.
  Wait time (average)   =    0.00 sec.
                          ------------
Total (root+branch&cut) = 2010.81 sec. (264589.28 ticks)

<<< solve


OBJECTIVE: 705

<<< post process


<<< done

